(declare-rel inv2 (Int Int Int Int))
(declare-rel fail ())
(declare-var A Int)
(declare-var B Int)
(declare-var C Int)
(declare-var D Int)
(declare-var E Int)
(declare-var F Int)
(rule (=> (and (= D B) (= C A) (= 1000 B) (= 100 A)) (inv2 D C B A)))
(rule (let ((a!1 (= E (ite (< (div D 10) C) (+ D 1) (- D 1))))
      (a!2 (= F (ite (< (div D 10) C) (- C 1) (+ C 1)))))
  (=> (and (inv2 D C B A) a!1 a!2) (inv2 E F B A))))
(rule (=> (and (inv2 C D B A) (not (< D C))) fail))
(query fail)

